N = 8;
Capacity = 14;
ItemsPerCustomer = [3, 7, 6, 6, 5, 4, 4, 9];
maxItemsPerCustomer = 9;
binCapacity = 50;
SizesOfItems = [|
  12, 11, 10, 0, 0, 0, 0, 0, 0
| 29, 27, 26, 17, 16, 16, 10, 0, 0
| 32, 32, 30, 27, 23, 17, 0, 0, 0
| 37, 35, 28, 24, 18, 10, 0, 0, 0
| 35, 34, 32, 23, 15, 0, 0, 0, 0
| 20, 18, 16, 14, 0, 0, 0, 0, 0
| 40, 34, 20, 13, 0, 0, 0, 0, 0
| 37, 35, 29, 22, 21, 21, 18, 13, 12
|];
Distance = [|
  0, 52, 45, 49, 48, 33, 46, 38, 35
| 52, 0, 7, 13, 100, 72, 87, 63, 62
| 45, 7, 0, 13, 93, 66, 81, 57, 57
| 49, 13, 13, 0, 97, 63, 78, 67, 52
| 48, 100, 93, 97, 0, 49, 49, 60, 63
| 33, 72, 66, 63, 49, 0, 15, 70, 15
| 46, 87, 81, 78, 49, 15, 0, 82, 27
| 38, 63, 57, 67, 60, 70, 82, 0, 73
| 35, 62, 57, 52, 63, 15, 27, 73, 0
|];
